TYPE : Vertex Cover
DIMENSION: 33
EDGE_DATA_SECTION:
0 5
0 7
0 18
0 23
0 26
1 5
1 7
1 8
1 15
1 16
1 26
1 28
2 3
2 16
2 17
2 19
2 22
2 32
3 7
3 19
3 24
3 31
4 14
5 8
5 9
5 31
6 17
6 18
6 27
6 30
7 24
8 14
8 24
8 25
8 27
8 32
9 10
9 17
9 29
10 24
11 17
11 23
14 20
14 26
14 27
14 28
15 21
15 23
16 19
16 28
17 21
17 27
18 26
19 21
20 21
21 31
23 32
25 31
29 30
-1
VERTEX_DEGREE:
5.0 7.0 6.0 5.0 1.0 5.0 4.0 4.0 7.0 4.0 2.0 2.0 0.0 0.0 6.0 3.0 4.0 6.0 3.0 4.0 2.0 5.0 1.0 4.0 4.0 2.0 4.0 4.0 3.0 2.0 2.0 4.0 3.0
VERTEX_COVER:
0 1 2 3 6 8 9 14 16 17 18 21 23 24 30 31
EOF
